(set-logic ALL)
(declare-fun var0 () String)
(assert (str.in_re var0 (re.++ (re.union (re.union (str.to_re "000") (str.to_re "1")) (re.union (str.to_re "2") (str.to_re "33"))) (re.++ (re.+ (re.union (str.to_re "44") (str.to_re "5"))) (re.++ (re.* (re.* (str.to_re "6"))) (re.++ (re.* (re.+ (str.to_re "77"))) (re.++ (re.+ (re.union (str.to_re "88") (str.to_re "9"))) (re.++ (re.+ (re.union (str.to_re "aaa") (str.to_re "bb"))) (re.++ (re.union (re.union (str.to_re "ccc") (str.to_re "ddd")) (re.union (str.to_re "e") (str.to_re "f"))) (re.++ (re.* (re.union (str.to_re "ggg") (str.to_re "hhh"))) (re.++ (re.union (re.+ (str.to_re "iii")) (re.+ (str.to_re "j"))) (re.++ (re.* (re.* (str.to_re "k"))) (re.++ (re.* (re.union (str.to_re "ll") (str.to_re "mm"))) (re.++ (re.* (re.+ (str.to_re "n"))) (re.++ (re.* (re.union (str.to_re "ooo") (str.to_re "pp"))) (re.++ (re.* (re.union (str.to_re "qq") (str.to_re "r"))) (re.++ (re.* (re.union (str.to_re "sss") (str.to_re "ttt"))) (re.++ (re.* (re.+ (str.to_re "uu"))) (re.++ (re.union (re.union (str.to_re "v") (str.to_re "www")) (re.union (str.to_re "xx") (str.to_re "y"))) (re.++ (re.union (re.+ (str.to_re "z")) (re.+ (str.to_re "AA"))) (re.++ (re.union (re.union (str.to_re "B") (str.to_re "CCC")) (re.union (str.to_re "D") (str.to_re "EE"))) (re.++ (re.+ (re.* (str.to_re "FFF"))) (re.++ (re.union (re.* (str.to_re "GG")) (re.* (str.to_re "HH"))) (re.++ (re.+ (re.+ (str.to_re "I"))) (re.++ (re.+ (re.* (str.to_re "J"))) (re.++ (re.* (re.+ (str.to_re "KKK"))) (re.++ (re.union (re.+ (str.to_re "LL")) (re.+ (str.to_re "M"))) (re.++ (re.+ (re.* (str.to_re "NN"))) (re.++ (re.+ (re.union (str.to_re "O") (str.to_re "PP"))) (re.++ (re.* (re.+ (str.to_re "QQ"))) (re.++ (re.* (re.* (str.to_re "RR"))) (re.++ (re.union (re.union (str.to_re "SS") (str.to_re "TTT")) (re.union (str.to_re "U") (str.to_re "V"))) (re.++ (re.* (re.union (str.to_re "W") (str.to_re "XXX"))) (re.++ (re.+ (re.union (str.to_re "Y") (str.to_re "ZZ"))) (re.++ (re.+ (re.+ (str.to_re "!"))) (re.++ (re.union (re.+ (str.to_re """")) (re.+ (str.to_re "##"))) (re.++ (re.* (re.* (str.to_re "$$"))) (re.++ (re.* (re.+ (str.to_re "%%%"))) (re.++ (re.* (re.union (str.to_re "&&&") (str.to_re "'"))) (re.++ (re.* (re.union (str.to_re "(") (str.to_re "))"))) (re.++ (re.+ (re.union (str.to_re "*") (str.to_re "+"))) (re.++ (re.union (re.* (str.to_re ",,")) (re.* (str.to_re "-"))) (re.++ (re.+ (re.* (str.to_re "..."))) (re.++ (re.* (re.union (str.to_re "///") (str.to_re ":"))) (re.++ (re.* (re.* (str.to_re ";;"))) (re.++ (re.+ (re.+ (str.to_re "<"))) (re.++ (re.union (re.* (str.to_re "===")) (re.* (str.to_re ">>"))) (re.++ (re.+ (re.union (str.to_re "??") (str.to_re "@@@"))) (re.++ (re.* (re.union (str.to_re "[[") (str.to_re "\\\\\\"))) (re.++ (re.* (re.union (str.to_re "]]") (str.to_re "^^"))) (re.++ (re.* (re.* (str.to_re "_"))) (re.++ (re.+ (re.+ (str.to_re "`"))) (re.++ (re.union (re.+ (str.to_re "{{")) (re.+ (str.to_re "|"))) (re.++ (re.* (re.union (str.to_re "}}}") (str.to_re "~~"))) (re.++ (re.+ (re.* (str.to_re "00"))) (re.++ (re.union (re.+ (str.to_re "1")) (re.+ (str.to_re "222"))) (re.++ (re.+ (re.union (str.to_re "3") (str.to_re "444"))) (re.++ (re.* (re.+ (str.to_re "5"))) (re.++ (re.union (re.+ (str.to_re "6")) (re.+ (str.to_re "777"))) (re.++ (re.+ (re.+ (str.to_re "8"))) (re.++ (re.* (re.* (str.to_re "9"))) (re.++ (re.union (re.union (str.to_re "aaa") (str.to_re "bbb")) (re.union (str.to_re "cc") (str.to_re "dd"))) (re.union (re.* (str.to_re "eee")) (re.* (str.to_re "f")))))))))))))))))))))))))))))))))))))))))))))))))))))))))))))))))
(assert (not (str.in_re var0 (re.++ (re.union (re.* (str.to_re "00")) (re.* (str.to_re "111"))) (re.++ (re.* (re.union (str.to_re "22") (str.to_re "33"))) (re.++ (re.+ (re.+ (str.to_re "44"))) (re.++ (re.* (re.+ (str.to_re "555"))) (re.++ (re.* (re.union (str.to_re "6") (str.to_re "77"))) (re.++ (re.+ (re.* (str.to_re "8"))) (re.++ (re.* (re.union (str.to_re "9") (str.to_re "a"))) (re.++ (re.union (re.* (str.to_re "bb")) (re.* (str.to_re "c"))) (re.++ (re.+ (re.+ (str.to_re "ddd"))) (re.++ (re.+ (re.union (str.to_re "ee") (str.to_re "ff"))) (re.++ (re.+ (re.+ (str.to_re "gg"))) (re.++ (re.+ (re.+ (str.to_re "hh"))) (re.++ (re.+ (re.* (str.to_re "iii"))) (re.++ (re.+ (re.union (str.to_re "jjj") (str.to_re "kk"))) (re.++ (re.* (re.+ (str.to_re "ll"))) (re.++ (re.union (re.+ (str.to_re "mmm")) (re.+ (str.to_re "n"))) (re.++ (re.union (re.union (str.to_re "ooo") (str.to_re "pp")) (re.union (str.to_re "q") (str.to_re "r"))) (re.++ (re.* (re.* (str.to_re "s"))) (re.++ (re.* (re.* (str.to_re "t"))) (re.++ (re.+ (re.union (str.to_re "u") (str.to_re "v"))) (re.++ (re.union (re.union (str.to_re "w") (str.to_re "xx")) (re.union (str.to_re "y") (str.to_re "z"))) (re.++ (re.* (re.* (str.to_re "A"))) (re.++ (re.+ (re.union (str.to_re "BB") (str.to_re "CC"))) (re.++ (re.+ (re.+ (str.to_re "DDD"))) (re.++ (re.+ (re.union (str.to_re "EEE") (str.to_re "FFF"))) (re.++ (re.+ (re.union (str.to_re "G") (str.to_re "HH"))) (re.++ (re.+ (re.+ (str.to_re "II"))) (re.++ (re.union (re.union (str.to_re "JJJ") (str.to_re "K")) (re.union (str.to_re "L") (str.to_re "M"))) (re.++ (re.+ (re.* (str.to_re "NNN"))) (re.++ (re.+ (re.union (str.to_re "O") (str.to_re "P"))) (re.++ (re.+ (re.+ (str.to_re "QQQ"))) (re.++ (re.* (re.+ (str.to_re "RR"))) (re.++ (re.union (re.union (str.to_re "SS") (str.to_re "T")) (re.union (str.to_re "U") (str.to_re "VVV"))) (re.++ (re.+ (re.union (str.to_re "W") (str.to_re "XXX"))) (re.++ (re.* (re.union (str.to_re "Y") (str.to_re "ZZ"))) (re.++ (re.+ (re.+ (str.to_re "!"))) (re.++ (re.* (re.+ (str.to_re """"))) (re.++ (re.+ (re.* (str.to_re "##"))) (re.++ (re.* (re.* (str.to_re "$$$"))) (re.++ (re.+ (re.+ (str.to_re "%"))) (re.++ (re.union (re.* (str.to_re "&&")) (re.* (str.to_re "''"))) (re.++ (re.+ (re.+ (str.to_re "(("))) (re.++ (re.+ (re.+ (str.to_re ")"))) (re.++ (re.+ (re.* (str.to_re "*"))) (re.++ (re.+ (re.* (str.to_re "+++"))) (re.++ (re.+ (re.* (str.to_re ","))) (re.++ (re.+ (re.+ (str.to_re "-"))) (re.++ (re.+ (re.union (str.to_re "...") (str.to_re "/"))) (re.++ (re.union (re.* (str.to_re ":")) (re.* (str.to_re ";;"))) (re.++ (re.+ (re.union (str.to_re "<<<") (str.to_re "==="))) (re.++ (re.union (re.+ (str.to_re ">>")) (re.+ (str.to_re "???"))) (re.++ (re.union (re.+ (str.to_re "@")) (re.+ (str.to_re "[[["))) (re.++ (re.union (re.* (str.to_re "\\")) (re.* (str.to_re "]]"))) (re.++ (re.* (re.union (str.to_re "^^^") (str.to_re "_"))) (re.++ (re.* (re.+ (str.to_re "`"))) (re.++ (re.* (re.* (str.to_re "{{{"))) (re.++ (re.union (re.+ (str.to_re "|||")) (re.+ (str.to_re "}}"))) (re.++ (re.+ (re.* (str.to_re "~~"))) (re.++ (re.union (re.* (str.to_re "00")) (re.* (str.to_re "11"))) (re.++ (re.union (re.* (str.to_re "22")) (re.* (str.to_re "33"))) (re.union (re.+ (str.to_re "44")) (re.+ (str.to_re "55"))))))))))))))))))))))))))))))))))))))))))))))))))))))))))))))))))
(check-sat)